c Reduced graph for GEOM80_5 generated by Cyril Grelier
p edge 47 211
v 1 10
v 2 10
v 3 10
v 4 10
v 5 10
v 6 10
v 7 10
v 8 10
v 9 10
v 10 10
v 11 10
v 12 10
v 13 9
v 14 9
v 15 9
v 16 9
v 17 8
v 18 8
v 19 8
v 20 8
v 21 7
v 22 7
v 23 7
v 24 6
v 25 6
v 26 6
v 27 6
v 28 5
v 29 5
v 30 5
v 31 5
v 32 5
v 33 5
v 34 4
v 35 4
v 36 3
v 37 3
v 38 3
v 39 3
v 40 3
v 41 2
v 42 2
v 43 1
v 44 1
v 45 1
v 46 1
v 47 1
e 1 13
e 1 17
e 1 21
e 1 32
e 1 35
e 1 36
e 1 37
e 1 38
e 1 41
e 1 44
e 1 46
e 1 47
e 2 3
e 2 6
e 2 7
e 2 8
e 2 15
e 2 20
e 2 22
e 2 26
e 2 35
e 2 46
e 3 6
e 3 7
e 3 20
e 3 22
e 3 26
e 3 31
e 3 42
e 3 46
e 4 5
e 4 18
e 4 19
e 4 24
e 4 25
e 4 30
e 4 34
e 4 39
e 4 43
e 5 14
e 5 18
e 5 19
e 5 29
e 5 34
e 5 43
e 5 45
e 6 7
e 6 8
e 6 15
e 6 20
e 6 26
e 7 8
e 7 15
e 7 20
e 7 26
e 8 15
e 8 20
e 8 26
e 9 10
e 9 24
e 9 25
e 9 39
e 10 11
e 10 12
e 11 12
e 13 17
e 13 23
e 13 33
e 13 35
e 13 36
e 13 37
e 13 38
e 13 40
e 13 41
e 13 44
e 13 46
e 14 21
e 14 27
e 14 28
e 14 29
e 14 43
e 14 45
e 14 47
e 15 20
e 15 26
e 16 23
e 16 24
e 16 25
e 16 33
e 16 36
e 16 44
e 17 21
e 17 23
e 17 28
e 17 32
e 17 35
e 17 36
e 17 37
e 17 38
e 17 41
e 17 44
e 17 47
e 18 19
e 18 24
e 18 25
e 18 28
e 18 29
e 18 30
e 18 34
e 18 39
e 18 43
e 19 24
e 19 25
e 19 30
e 19 34
e 19 39
e 19 43
e 20 22
e 20 26
e 21 27
e 21 28
e 21 29
e 21 32
e 21 34
e 21 36
e 21 41
e 21 43
e 21 44
e 21 45
e 21 47
e 22 26
e 22 31
e 22 35
e 22 40
e 22 42
e 22 46
e 23 33
e 23 36
e 23 37
e 23 40
e 23 42
e 23 44
e 24 25
e 24 30
e 24 34
e 24 39
e 24 43
e 25 30
e 25 34
e 25 39
e 27 28
e 27 29
e 27 32
e 27 45
e 27 47
e 28 29
e 28 34
e 28 36
e 28 43
e 28 44
e 28 45
e 29 34
e 29 36
e 29 43
e 29 45
e 30 34
e 30 39
e 30 43
e 31 35
e 31 37
e 31 40
e 31 42
e 31 46
e 32 38
e 32 41
e 32 47
e 33 36
e 33 37
e 33 40
e 33 44
e 34 36
e 34 39
e 34 43
e 34 45
e 35 37
e 35 38
e 35 41
e 35 42
e 35 44
e 35 46
e 36 41
e 36 43
e 36 44
e 36 45
e 37 38
e 37 40
e 37 41
e 37 42
e 37 44
e 37 46
e 38 41
e 38 44
e 38 47
e 39 43
e 40 42
e 40 46
e 41 44
e 41 47
e 42 46
e 43 45
e 45 47
